50, 926
49, 44
48, 43
44, 39
46, 43
48, 47
29, 32
27, 25
28, 23
44, 40
35, 30
45, 46
44, 44
32, 35
25, 20
25, 22
34, 38
37, 39
29, 26
44, 40
35, 34
33, 37
46, 48
46, 51
25, 28
46, 50
37, 34
41, 39
40, 36
46, 51
38, 35
38, 43
27, 22
29, 24
26, 26
43, 42
30, 31
30, 29
42, 45
32, 27
40, 41
40, 44
30, 27
36, 36
28, 31
33, 36
40, 42
45, 44
49, 44
28, 32
40, 35
